objectiveMultipliers = [10000,1,100];
paintBatchLimit = 15;
Constraints = {HPRC1,HPRC2,HPRC3,HPRC4,LPRC1,LPRC2};
ratios = [|1,40,1|1,100,1|1,2,1|1,2,1|1,5,0|1,30,0|];
associatedConstraints = [|0,0,0,0,0,0|0,0,1,0,0,0|0,0,0,0,0,0|0,0,1,0,0,0|0,0,0,0,0,0|0,0,1,0,0,0|0,0,0,0,0,0|0,0,1,0,0,0|0,0,0,0,0,1|0,0,1,0,0,0|0,0,0,0,0,0|0,0,1,0,0,0|0,0,0,0,0,0|0,0,1,0,0,0|0,0,0,0,0,0|0,0,0,0,0,0|0,0,1,0,0,0|0,0,0,0,0,0|0,0,1,0,0,0|0,0,0,0,0,0|0,0,1,0,0,0|0,0,0,0,0,0|0,0,0,0,0,0|0,0,1,0,0,0|0,0,0,0,1,0|0,0,0,0,0,0|0,0,1,0,0,0|0,0,0,0,0,0|0,0,1,0,0,0|0,0,0,0,0,0|0,0,1,0,0,0|0,0,0,0,0,0|0,0,1,0,0,0|0,0,0,0,0,0|0,0,1,0,0,0|0,0,0,0,0,1|0,0,0,0,0,0|0,0,1,0,0,0|0,0,0,0,0,0|0,0,0,0,0,0|0,0,0,0,0,0|0,0,0,0,1,0|0,0,0,0,0,0|0,0,0,0,0,0|0,0,0,0,0,0|0,0,0,0,0,0|0,0,0,0,0,0|0,0,0,0,0,0|0,0,1,0,0,0|0,0,0,0,1,0|0,0,1,0,0,0|0,0,0,0,0,0|0,0,1,0,0,0|0,0,0,0,0,0|0,0,1,0,0,0|0,0,0,0,0,0|0,0,1,0,0,0|0,0,0,0,0,0|0,0,0,0,0,1|0,0,0,0,0,0|0,0,1,0,0,0|0,0,0,0,0,0|0,0,0,0,0,0|0,0,0,0,0,0|0,0,1,0,0,0|0,0,0,0,0,0|0,0,0,0,0,0|0,0,0,0,0,0|0,0,0,0,0,0|0,0,0,0,0,0|0,0,1,0,0,0|0,0,0,0,0,0|0,0,1,0,0,0|0,0,0,0,0,0|0,0,1,0,0,0|0,0,0,0,0,0|0,0,1,0,0,0|0,0,0,0,0,0|0,0,1,0,0,0|0,0,0,0,0,0|0,0,1,0,0,0|0,0,0,0,0,0|0,0,0,0,0,0|0,0,1,0,0,0|0,0,0,0,0,0|0,0,1,0,0,0|0,0,0,0,0,0|0,0,0,0,0,0|0,0,0,0,0,0|0,0,0,0,0,0|0,0,0,0,0,0|0,0,0,0,0,0|0,0,1,0,0,0|0,0,0,0,0,0|0,0,1,0,0,0|0,0,0,0,0,0|0,0,1,0,0,0|0,0,0,0,0,0|0,0,1,0,0,0|0,0,1,0,0,0|0,0,0,0,0,0|0,0,1,0,0,0|0,0,0,0,0,0|0,0,1,0,0,0|0,0,0,0,0,0|0,0,1,0,0,0|0,0,0,0,1,0|0,0,1,0,0,0|0,0,0,0,0,0|0,0,1,0,0,0|0,0,0,0,0,0|0,0,1,0,1,0|0,0,0,0,0,0|0,0,0,0,0,0|0,0,1,0,0,0|0,0,0,0,0,0|0,0,1,0,0,0|0,0,0,0,0,0|0,0,1,0,1,0|0,0,0,0,0,0|0,0,1,0,0,0|0,0,0,0,0,0|0,0,1,0,0,0|0,0,0,0,0,0|0,0,1,0,0,0|0,0,0,0,0,0|0,0,0,0,0,0|0,0,1,0,0,0|0,0,0,0,0,0|0,0,1,0,1,0|0,0,0,0,0,0|0,0,1,0,0,0|0,0,0,0,0,0|0,0,0,0,0,0|0,0,1,0,0,0|0,0,0,0,0,0|0,0,0,0,0,0|0,0,1,0,0,0|0,0,0,0,0,0|0,0,1,0,0,0|0,0,0,0,0,0|0,0,1,0,1,0|0,0,0,0,0,0|0,0,0,0,0,0|0,0,0,0,0,0|0,0,1,0,0,0|0,0,0,0,0,0|0,0,0,0,0,0|0,0,0,0,0,0|0,0,1,0,0,0|0,0,0,0,0,0|0,0,1,0,0,0|0,0,0,0,0,0|0,0,1,0,0,0|0,0,0,0,0,0|0,0,1,0,0,0|0,0,0,0,0,0|0,0,0,0,0,0|0,0,1,0,0,0|0,0,0,0,0,1|0,0,1,0,0,0|0,0,0,0,0,0|0,0,1,0,0,0|0,0,0,0,0,0|0,0,1,0,1,0|0,0,0,0,0,0|0,0,1,0,0,0|0,0,0,0,0,0|0,0,0,0,0,0|0,0,0,0,0,0|0,0,1,0,1,0|0,0,0,0,0,0|0,0,0,0,0,0|0,0,1,0,0,0|0,0,0,0,0,0|0,0,1,0,0,0|0,0,0,0,0,0|0,0,1,0,0,0|0,0,0,0,0,0|0,0,1,0,0,0|0,0,0,0,0,0|0,0,1,0,0,0|0,0,0,0,0,0|0,0,0,0,0,0|0,0,0,0,0,0|0,0,1,0,0,0|0,0,0,0,0,0|0,0,0,0,0,0|0,0,0,0,0,0|0,0,1,0,0,0|0,0,0,0,0,0|0,0,0,0,0,0|0,0,0,0,0,0|0,0,1,0,0,0|0,0,0,0,0,0|0,0,1,0,0,0|0,0,0,0,0,0|0,0,0,0,0,0|0,0,1,0,1,1|0,0,0,0,0,0|0,0,1,0,0,0|0,0,0,0,0,0|0,0,0,0,0,0|0,0,0,0,0,0|0,0,0,0,0,0|0,0,1,0,0,0|0,0,0,0,0,0|0,0,1,0,0,0|0,0,0,0,0,0|0,0,0,0,0,0|0,0,0,0,0,0|0,0,0,0,1,0|0,0,0,0,0,0|0,0,0,0,0,0|0,0,0,0,0,0|0,0,1,0,0,0|0,0,0,0,0,0|0,0,1,0,0,0|0,0,0,0,1,0|0,0,1,0,0,0|0,0,0,0,0,0|0,0,0,0,0,0|0,0,0,0,0,0|0,0,0,0,0,0|0,0,1,0,0,0|0,0,0,0,0,0|0,0,0,0,0,0|0,0,0,0,0,0|0,0,0,0,0,0|0,0,0,0,0,0|0,0,0,0,0,0|0,0,1,0,0,0|0,0,0,0,0,1|0,0,1,0,0,0|0,0,0,0,0,0|0,0,0,0,0,0|0,0,1,0,0,0|0,0,0,0,0,0|0,0,1,0,0,0|0,0,0,0,0,0|0,0,0,0,0,0|0,0,0,0,0,0|0,0,0,0,0,0|0,0,1,0,0,0|0,0,0,0,0,0|0,0,1,0,0,0|0,0,0,0,0,0|0,0,0,0,0,0|0,0,1,0,0,0|0,0,0,0,0,0|0,0,1,0,0,0|0,0,0,0,1,0|0,0,0,0,0,0|0,0,0,1,0,0|0,0,0,0,0,0|0,0,0,0,0,0|0,0,0,0,0,0|0,0,0,0,0,0|0,0,1,0,0,0|0,0,0,0,0,0|0,0,0,0,0,0|0,0,0,0,0,0|0,0,0,0,0,0|0,0,1,0,0,0|0,0,0,0,0,0|0,0,0,0,1,0|0,0,1,0,0,0|0,0,0,0,0,0|0,0,1,0,0,0|0,0,0,0,0,0|0,0,0,0,0,0|0,0,0,0,0,0|0,0,0,0,0,0|0,0,1,0,0,0|0,0,0,0,0,0|0,0,1,0,0,0|0,0,0,0,0,0|0,0,1,0,0,0|0,0,0,0,0,0|0,0,0,0,0,0|0,0,1,0,0,0|0,0,0,0,0,0|0,0,1,0,0,0|0,0,0,0,0,0|0,0,1,0,0,0|0,0,0,0,0,1|0,0,1,0,0,0|0,0,0,0,0,0|0,0,1,0,0,0|0,0,0,0,0,0|0,0,0,0,0,0|0,0,0,0,0,0|0,0,0,0,0,0|0,0,0,0,0,0|0,0,1,0,0,0|0,0,0,0,0,0|0,0,1,0,0,0|0,0,0,0,0,0|0,0,1,0,0,0|0,0,0,0,0,0|0,0,1,0,0,0|0,0,0,0,0,0|0,0,0,0,0,0|0,0,1,0,0,0|0,0,0,0,0,0|0,0,1,0,0,0|0,0,0,0,0,0|0,0,1,0,0,0|0,0,0,0,0,0|0,0,0,0,0,0|0,0,1,0,0,0|0,0,0,0,0,0|0,0,0,0,0,0|0,0,0,0,0,0|0,0,0,0,0,0|0,0,1,0,0,0|0,0,0,0,0,0|0,0,1,0,1,0|0,0,0,0,0,0|0,0,1,0,0,0|0,0,0,0,0,0|0,0,1,0,0,0|0,0,0,0,0,0|0,0,1,0,1,0|0,0,0,0,0,0|0,0,1,0,0,0|0,0,0,0,0,0|0,0,0,0,0,0|0,0,1,0,0,0|0,0,0,0,0,0|0,0,1,0,0,0|0,0,0,0,0,1|0,0,1,0,0,0|0,0,0,0,0,0|0,0,0,0,0,0|0,0,0,0,0,0|0,0,0,0,0,0|0,0,0,0,0,0|0,0,1,0,0,0|0,0,0,0,0,0|0,0,0,0,0,0|0,0,0,0,0,0|0,0,0,0,0,0|0,0,0,0,0,0|0,0,1,0,0,0|0,0,0,0,0,0|0,0,1,0,0,0|0,0,0,0,0,0|0,0,1,0,0,0|0,0,0,0,0,0|0,0,0,0,0,0|0,0,0,0,0,0|0,0,0,0,0,0|0,0,1,0,0,0|0,0,0,1,0,0|0,0,0,0,0,0|0,0,1,0,0,0|0,0,0,0,0,0|0,0,0,0,0,0|0,0,0,1,0,0|0,0,0,0,0,0|0,0,0,0,0,0|0,0,0,0,0,0|0,0,0,0,0,0|0,0,0,0,0,0|0,0,0,0,0,0|0,0,0,0,0,0|0,0,0,0,0,0|0,0,0,0,0,0|0,0,1,0,0,0|0,0,0,0,0,0|0,0,1,0,1,1|0,0,0,0,0,0|0,0,1,0,0,0|0,0,0,0,0,0|0,0,0,0,0,0|0,0,1,0,0,0|0,0,0,0,0,0|0,0,0,0,0,0|0,0,1,0,0,0|0,0,0,0,0,0|0,0,1,0,0,0|0,0,0,0,0,0|0,0,1,0,0,0|0,0,0,0,0,0|0,0,1,0,1,0|0,0,0,0,0,0|0,0,1,0,0,0|0,0,0,0,0,0|0,0,0,0,0,0|0,0,1,0,0,0|0,0,0,0,0,0|0,0,1,0,1,0|0,0,0,0,0,0|0,0,1,0,0,0|0,0,0,0,0,0|0,0,1,0,0,0|0,0,0,0,0,0|0,0,1,0,1,0|0,0,0,0,0,0|0,0,0,0,0,0|0,0,0,0,0,0|0,0,1,0,0,0|0,0,0,0,0,1|0,0,1,0,0,0|0,0,0,0,0,0|0,0,1,0,1,0|0,0,0,0,0,0|0,0,1,0,0,0|0,0,0,0,0,0|0,0,1,0,0,0|0,0,0,0,0,0|0,0,0,0,0,0|0,0,1,0,0,0|0,0,0,0,0,0|0,0,1,0,0,0|0,0,0,0,0,0|0,0,1,0,0,0|0,0,0,0,0,0|0,0,1,0,0,0|0,0,0,0,0,0|0,0,0,0,0,0|0,0,1,0,0,0|0,0,0,0,0,0|0,0,1,0,0,0|0,0,0,0,0,0|0,0,1,0,0,0|0,0,0,0,0,0|0,0,1,0,0,0|0,0,0,0,0,0|0,0,0,0,0,0|0,0,1,0,0,0|0,0,0,0,0,0|0,0,1,0,1,1|0,0,0,0,0,0|0,0,1,0,0,0|0,0,0,0,0,0|0,0,0,0,0,0|0,0,1,0,0,0|0,0,0,0,0,0|0,0,1,0,0,0|0,0,0,0,0,0|0,0,1,0,0,0|0,0,0,0,1,0|0,0,1,0,0,0|0,0,0,0,0,0|0,0,0,0,0,0|0,0,0,0,0,0|0,0,1,0,0,0|0,0,0,0,0,0|0,0,1,0,0,0|0,0,0,0,0,0|0,0,1,0,0,0|0,0,0,0,0,0|0,0,0,0,0,0|0,0,1,0,1,0|0,0,0,0,0,0|0,0,1,0,0,0|0,0,0,0,0,0|0,0,1,0,0,0|0,0,0,0,0,0|0,0,0,0,0,0|0,0,1,0,0,0|0,0,0,0,1,0|0,0,1,0,0,0|0,0,0,0,0,1|0,0,1,0,0,0|0,0,0,0,0,0|0,0,1,0,0,0|0,0,0,0,0,0|0,0,0,0,0,0|0,0,1,0,1,0|0,0,0,0,0,0|0,0,1,0,0,0|0,0,0,0,0,0|0,0,1,0,0,0|0,0,0,0,0,0|0,0,0,0,0,0|0,0,0,0,0,0|0,0,1,0,0,0|0,0,0,0,0,0|0,0,0,0,0,0|0,0,0,0,0,0|0,0,0,0,0,0|0,0,1,0,0,0|0,0,0,0,0,0|0,0,1,0,0,0|0,0,0,0,0,0|0,0,0,0,0,0|0,0,0,0,0,0|0,0,1,0,0,0|0,0,0,0,0,0|0,0,1,0,0,0|0,0,0,0,0,0|0,0,0,0,0,0|0,0,0,0,0,0|0,0,0,0,0,0|0,0,0,0,0,0|0,0,1,0,0,0|0,0,0,0,0,0|0,0,1,0,0,0|0,0,0,0,0,1|0,0,1,0,0,0|0,0,0,0,0,0|0,0,0,0,0,0|0,0,0,0,0,0|0,0,0,0,0,0|0,0,0,0,0,0|0,0,0,0,0,0|0,0,1,0,0,0|0,0,0,0,0,0|0,0,0,0,0,0|0,0,0,0,0,0|0,0,0,0,0,0|0,0,0,0,0,0|0,0,1,0,0,0|0,0,0,0,0,0|0,0,1,0,0,0|0,0,0,0,0,0|0,0,1,0,0,0|0,0,0,0,0,0|0,0,1,0,0,0|0,0,0,0,0,0|0,0,0,0,1,0|0,0,1,0,0,0|0,0,0,0,0,0|0,0,1,0,0,0|0,0,0,0,0,0|0,0,1,0,0,0|0,0,0,0,1,0|0,0,0,0,0,0|0,0,0,0,0,0|0,0,1,0,0,0|0,0,0,0,0,0|0,0,1,0,0,0|0,0,0,0,0,1|0,0,1,0,0,0|0,0,0,0,0,0|0,0,1,0,0,0|0,0,0,0,0,0|0,0,1,0,1,0|0,0,0,0,0,0|0,0,0,0,0,0|0,0,1,0,0,0|0,0,0,0,0,0|0,0,1,0,0,0|0,0,0,0,0,0|0,0,0,0,0,0|0,0,1,0,0,0|0,0,0,0,0,0|0,0,0,0,0,0|0,0,0,0,0,0|0,0,1,0,0,0|0,0,0,0,0,0|0,0,1,0,0,0|0,0,0,0,0,0|0,0,0,0,0,0|0,0,0,0,0,0|0,0,0,0,0,0|0,0,1,0,0,0|0,0,0,0,0,0|0,0,0,0,0,0|0,0,0,0,0,0|0,0,0,0,0,0|0,0,1,0,0,0|0,0,0,0,0,1|0,0,1,0,0,0|0,0,0,0,0,0|0,0,1,0,0,0|0,0,0,0,0,0|0,0,0,0,0,0|0,0,0,0,0,0|0,0,0,0,0,0|0,0,0,0,0,0|0,0,1,0,0,0|0,0,0,0,0,0|0,0,0,0,1,0|0,0,0,0,0,0|0,0,1,0,0,0|0,0,0,0,0,0|0,0,0,0,0,0|0,0,0,0,0,0|0,0,1,0,0,0|0,0,0,0,0,0|0,0,1,0,0,0|0,0,0,0,0,0|0,0,0,0,0,0|0,0,0,0,0,0|0,0,0,0,0,0|0,0,1,0,0,0|0,0,0,0,1,0|0,0,1,0,0,0|0,0,0,0,0,0|0,0,0,0,0,0|0,0,0,0,0,0|0,0,0,0,0,0|0,0,1,0,0,0|0,0,0,1,0,0|0,0,1,0,0,0|0,0,0,0,0,0|0,0,1,0,1,1|0,0,0,0,0,0|0,0,1,0,0,0|0,0,0,0,0,0|0,0,1,0,0,0|0,0,0,0,0,0|0,0,1,0,0,0|0,0,0,0,0,0|0,0,1,0,0,0|0,0,0,0,0,0|0,0,1,0,1,0|0,0,0,0,0,0|0,0,1,0,0,0|0,0,0,0,0,0|0,0,0,0,0,0|0,0,0,0,0,0|0,0,0,0,0,0|0,0,1,0,0,0|0,0,0,0,0,0|0,0,1,0,0,0|0,0,0,0,0,0|0,0,0,0,0,0|0,0,0,0,0,0|0,0,0,0,0,0|0,0,0,0,0,0|0,0,1,0,0,0|0,0,0,0,0,0|0,0,0,0,0,0|0,0,1,0,0,0|0,0,0,0,0,0|0,0,1,0,0,0|0,0,0,0,0,0|0,0,1,0,0,0|0,0,0,0,0,0|0,0,1,0,0,0|0,0,0,0,0,0|0,0,1,0,0,0|0,0,0,0,0,0|0,0,0,0,0,0|0,0,1,0,0,0|0,0,0,0,0,0|0,0,0,0,0,0|0,0,0,0,0,0|0,0,0,0,0,0|0,0,1,0,1,1|0,0,0,0,0,1|0,0,1,0,1,1|0,0,0,0,0,0|0,0,1,0,0,0|0,0,0,0,0,0|0,0,1,0,0,0|0,0,0,0,0,0|0,0,0,0,0,0|0,0,0,0,0,0|0,0,0,0,0,0|0,0,0,0,0,0|0,0,0,0,1,0|0,0,0,0,0,0|0,0,0,0,0,0|0,0,0,0,0,0|0,0,1,0,0,0|0,0,0,0,0,0|0,0,0,0,0,0|0,0,1,0,0,0|0,0,0,0,0,0|0,0,1,0,1,0|0,0,0,0,0,0|0,0,0,0,0,0|0,0,1,0,0,0|0,0,0,0,0,0|0,0,0,0,0,0|0,0,1,0,0,0|0,0,0,0,0,0|0,0,0,0,0,0|0,0,1,0,0,0|0,0,0,0,0,0|0,0,0,0,0,0|0,0,1,0,0,0|0,0,0,0,0,0|0,0,1,0,0,0|0,0,0,0,0,0|0,0,0,0,0,0|0,0,0,0,0,0|0,0,0,0,0,0|0,0,0,0,0,0|0,0,0,0,0,0|0,0,1,0,0,0|0,0,0,0,0,1|0,0,1,0,0,0|0,0,0,0,0,0|0,0,1,0,0,0|0,0,0,0,0,0|0,0,1,0,1,0|0,0,0,0,0,0|0,0,0,0,0,0|0,0,1,0,0,0|0,0,0,0,0,0|0,0,0,0,0,0|0,0,1,0,0,0|];
vehicles = [|0,1|0,1|0,1|0,1|0,1|0,1|0,1|0,1|0,1|0,1|0,1|0,2|0,2|0,2|0,2|0,2|0,2|0,2|0,2|0,2|0,2|0,2|0,2|0,2|0,2|0,2|0,1|0,1|0,1|0,1|0,1|0,1|0,1|0,1|0,1|0,1|0,3|0,3|0,4|0,4|0,4|0,4|0,4|0,4|0,4|0,5|0,5|0,5|0,1|0,1|0,1|0,1|0,1|0,1|0,1|0,6|0,6|0,6|0,6|0,6|0,6|0,4|0,2|0,2|0,2|0,2|0,2|0,2|0,2|0,2|0,2|0,2|0,1|0,3|0,7|0,6|0,6|0,6|0,6|0,3|0,1|0,2|0,2|0,2|0,2|0,6|0,2|0,2|0,2|0,2|0,2|0,2|0,1|0,8|0,1|0,4|0,1|0,1|0,1|1,1|1,1|1,1|1,9|1,9|1,9|1,9|1,9|1,9|1,9|1,1|1,7|1,7|1,7|1,7|1,7|1,7|1,7|1,7|1,7|1,7|1,7|1,7|1,1|1,9|1,9|1,9|1,9|1,9|1,9|1,9|1,9|1,1|1,9|1,9|1,9|1,9|1,9|1,1|1,1|1,1|1,2|1,2|1,2|1,2|1,2|1,2|1,2|1,2|1,2|1,1|1,6|1,10|1,6|1,6|1,6|1,1|1,6|1,6|1,1|1,1|1,1|1,9|1,9|1,9|1,10|1,8|1,1|1,9|1,9|1,9|1,9|1,9|1,9|1,9|1,9|1,9|1,9|1,1|1,1|1,1|1,2|1,2|1,2|1,2|1,2|1,2|1,2|1,2|1,2|1,2|1,2|1,2|1,2|1,1|1,9|1,9|1,9|1,9|1,1|1,6|1,6|1,6|1,6|1,6|1,6|1,1|1,1|1,1|1,6|1,6|1,6|1,6|1,6|1,6|1,6|1,1|1,9|1,9|1,9|1,1|1,2|1,2|1,2|1,2|1,2|1,2|1,2|1,2|1,2|1,2|1,2|1,1|1,1|1,1|1,5|1,5|1,1|1,3|1,1|1,6|1,6|1,6|1,6|1,6|1,6|1,10|1,4|1,4|1,1|1,4|1,1|1,5|1,5|1,5|1,5|1,5|1,5|1,5|1,1|1,2|1,2|1,2|1,2|1,1|1,9|1,9|1,1|1,6|1,6|1,6|1,6|1,6|1,6|1,6|1,6|1,1|1,8|1,8|1,8|1,8|1,1|1,2|1,2|1,2|1,1|1,1|1,1|1,6|1,1|1,5|1,5|1,5|1,5|1,5|1,1|1,4|1,1|1,5|1,1|1,6|1,1|1,8|1,8|1,8|1,8|1,8|1,8|1,1|1,6|1,6|1,6|1,6|1,6|1,6|1,6|1,1|1,7|1,7|1,7|1,7|1,7|1,7|1,7|1,7|1,7|1,1|1,2|1,2|1,1|1,5|1,1|1,1|1,1|1,2|1,2|1,2|1,2|1,2|1,2|1,2|1,2|1,2|1,2|1,2|1,1|1,7|1,1|1,1|1,1|1,5|1,5|1,5|1,5|1,1|1,5|1,5|1,1|1,5|1,5|1,5|1,5|1,5|1,5|1,5|1,5|1,5|1,5|1,5|1,5|1,1|1,2|1,1|1,2|1,2|1,2|1,2|1,2|1,2|1,2|1,2|1,2|1,2|1,2|1,1|1,7|1,7|1,7|1,7|1,7|1,7|1,7|1,7|1,7|1,7|1,7|1,7|1,7|1,7|1,7|1,5|1,5|1,5|1,1|1,1|1,1|1,1|1,1|1,1|1,1|1,2|1,2|1,2|1,2|1,1|1,1|1,1|1,1|1,1|1,2|1,2|1,2|1,2|1,1|1,1|1,1|1,2|1,2|1,2|1,2|1,2|1,2|1,2|1,2|1,11|1,2|1,2|1,2|1,2|1,2|1,2|1,1|1,3|1,1|1,8|1,1|1,4|1,4|1,4|1,1|1,1|1,1|1,9|1,9|1,9|1,9|1,9|1,9|1,9|1,9|1,9|1,9|1,9|1,9|1,9|1,1|1,1|1,1|1,8|1,1|1,2|1,2|1,2|1,2|1,2|1,2|1,1|1,2|1,2|1,2|1,1|1,3|1,3|1,3|1,3|1,1|1,2|1,2|1,2|1,2|1,2|1,2|1,2|1,2|1,2|1,2|1,2|1,2|1,2|1,1|1,1|1,1|1,1|1,1|1,2|1,2|1,2|1,2|1,2|1,2|1,2|1,2|1,2|1,2|1,2|1,2|1,2|1,2|1,1|1,1|1,1|1,5|1,1|1,9|1,9|1,1|1,1|1,1|1,9|1,9|1,9|1,9|1,9|1,9|1,9|1,1|1,1|1,1|1,1|1,1|1,9|1,9|1,9|1,9|1,9|1,9|1,1|1,3|1,3|1,1|1,6|1,6|1,6|1,6|1,6|1,6|1,6|1,6|1,6|1,6|1,6|1,6|1,6|1,6|1,6|1,1|1,1|1,1|1,1|1,1|1,6|1,6|1,6|1,6|1,6|1,1|1,3|1,3|1,3|1,1|1,6|1,6|1,6|1,1|1,1|1,1|1,5|1,5|1,5|1,5|1,1|1,9|1,1|1,8|1,8|1,8|1,8|1,8|1,8|1,1|1,6|1,6|1,6|1,6|1,6|1,1|1,1|1,1|1,8|1,8|1,8|1,8|1,8|1,1|1,5|1,5|1,5|1,5|1,1|1,3|1,3|1,3|1,3|1,3|1,3|1,3|1,3|1,3|1,3|1,1|1,1|1,1|1,5|1,1|1,1|1,1|1,1|1,1|1,5|1,5|1,1|1,5|1,5|1,5|1,5|1,11|1,11|1,11|1,6|1,1|1,4|1,1|1,6|1,6|1,6|1,6|1,6|1,6|1,6|1,6|1,6|1,1|1,2|1,2|1,2|1,2|1,2|1,2|1,2|1,2|1,2|1,2|1,2|1,2|1,2|1,1|1,6|1,6|1,1|1,1|1,1|1,6|1,6|1,6|1,6|1,6|1,6|1,1|1,1|1,1|1,1|1,1|1,6|1,6|1,6|1,6|1,6|1,6|1,6|1,1|];
numVehicles = 699;